2
1
{3}
35.0 16.0
0 1 1 1 -1.0
0 1 1 3 -3.0
0 1 2 2 -0.75
0 1 2 3 -0.75
0 1 3 3 -9.75
1 1 1 1 11.0
1 1 1 2 16.0
1 1 1 3 12.0
1 1 2 2 12.0
1 1 2 3 9.0
1 1 3 3 12.0
2 1 1 1 7.0
2 1 1 2 0.0
2 1 1 3 2.0
2 1 2 2 8.0
2 1 2 3 14.0
2 1 3 3 1.0
